NAME: random-58-22579
TYPE: TSP
COMMENT: size=58 seed=22579
DIMENSION: 118
EDGE_WEIGHT_TYPE: EUC_2D
NODE_COORD_SECTION
+0 253 228
-0 253 228
+1 707 367
-1 862 146
+2 378 223
-2 387 166
+3 854 658
-3 544 117
+4 342 160
-4 281 25
+5 815 469
-5 705 727
+6 305 848
-6 149 654
+7 840 661
-7 725 31
+8 973 656
-8 497 590
+9 93 805
-9 969 903
+10 574 393
-10 95 74
+11 445 628
-11 145 864
+12 747 812
-12 597 45
+13 836 647
-13 955 637
+14 501 88
-14 607 388
+15 416 637
-15 792 555
+16 560 896
-16 860 176
+17 859 952
-17 207 568
+18 33 976
-18 68 864
+19 315 234
-19 557 21
+20 508 416
-20 565 111
+21 555 447
-21 714 703
+22 927 781
-22 397 565
+23 920 595
-23 546 367
+24 876 123
-24 842 163
+25 322 808
-25 161 590
+26 233 453
-26 784 201
+27 877 431
-27 174 684
+28 268 508
-28 789 778
+29 489 480
-29 833 780
+30 602 750
-30 577 594
+31 623 3
-31 555 718
+32 126 655
-32 949 201
+33 560 860
-33 76 521
+34 304 91
-34 583 155
+35 982 65
-35 923 788
+36 970 247
-36 866 303
+37 241 64
-37 169 842
+38 290 731
-38 290 541
+39 264 552
-39 350 550
+40 605 195
-40 597 747
+41 722 800
-41 417 394
+42 643 378
-42 440 67
+43 770 988
-43 888 154
+44 139 711
-44 463 153
+45 438 479
-45 33 789
+46 702 495
-46 616 681
+47 108 441
-47 296 791
+48 833 812
-48 173 447
+49 758 327
-49 548 868
+50 544 620
-50 286 81
+51 328 681
-51 91 202
+52 606 707
-52 600 936
+53 730 618
-53 629 943
+54 719 339
-54 310 18
+55 730 681
-55 838 920
+56 217 948
-56 521 496
+57 189 967
-57 38 775
+58 619 862
-58 449 145
PRECEDENCE_SECTION
+0 -0
+1 -1
+2 -2
+3 -3
+4 -4
+5 -5
+6 -6
+7 -7
+8 -8
+9 -9
+10 -10
+11 -11
+12 -12
+13 -13
+14 -14
+15 -15
+16 -16
+17 -17
+18 -18
+19 -19
+20 -20
+21 -21
+22 -22
+23 -23
+24 -24
+25 -25
+26 -26
+27 -27
+28 -28
+29 -29
+30 -30
+31 -31
+32 -32
+33 -33
+34 -34
+35 -35
+36 -36
+37 -37
+38 -38
+39 -39
+40 -40
+41 -41
+42 -42
+43 -43
+44 -44
+45 -45
+46 -46
+47 -47
+48 -48
+49 -49
+50 -50
+51 -51
+52 -52
+53 -53
+54 -54
+55 -55
+56 -56
+57 -57
+58 -58
EOF
